c preprocessed version of water-wpp, 21 vertices, 94 edges
p td 21 94
1 0
0 11
0 12
0 2
1 2
1 13
1 14
2 3
2 6
13 2
12 2
11 2
2 5
3 4
5 3
8 3
7 3
11 3
3 6
5 4
9 4
8 4
14 4
13 4
4 6
5 6
7 5
8 5
12 5
7 6
12 6
11 6
13 6
8 7
10 7
12 7
11 7
8 9
10 8
10 9
14 9
13 9
10 11
10 12
10 13
10 14
12 11
11 13
12 13
14 13
15 18
15 1
15 10
15 19
15 16
15 17
15 14
15 13
16 18
16 0
16 11
16 12
16 19
16 17
17 18
17 0
17 1
17 2
17 12
17 19
18 0
18 11
18 2
18 1
18 19
19 20
19 2
19 3
19 5
19 7
19 10
19 11
19 12
20 15
20 16
20 17
20 18
20 3
20 5
20 7
20 8
20 10
20 11
20 12
